GLPSOL--GLPK LP/MIP Solver 5.0
Parameter(s) specified in the command line:
 --lp ../modeles/15_229.lp --log 15_229.log
Reading problem data from '../modeles/15_229.lp'...
3496 rows, 6900 columns, 24120 non-zeros
3435 integer variables, all of which are binary
10417 lines were read
GLPK Integer Optimizer 5.0
3496 rows, 6900 columns, 24120 non-zeros
3435 integer variables, all of which are binary
Preprocessing...
3390 constraint coefficient(s) were reduced
3496 rows, 6885 columns, 24105 non-zeros
3435 integer variables, all of which are binary
Scaling...
 A: min|aij| =  7.628e-05  max|aij| =  4.000e+00  ratio =  5.244e+04
GM: min|aij| =  6.608e-02  max|aij| =  1.513e+01  ratio =  2.290e+02
EQ: min|aij| =  4.367e-03  max|aij| =  1.000e+00  ratio =  2.290e+02
2N: min|aij| =  3.906e-03  max|aij| =  1.752e+00  ratio =  4.486e+02
Constructing initial basis...
Size of triangular part is 3496
Solving LP relaxation...
GLPK Simplex Optimizer 5.0
3496 rows, 6885 columns, 24105 non-zeros
      0: obj =   3.000000000e+01 inf =   7.450e+01 (31)
    224: obj =   4.994374523e-01 inf =   0.000e+00 (0)
*   768: obj =  -3.871215429e+00 inf =   2.554e-15 (0) 1
OPTIMAL LP SOLUTION FOUND
Integer optimization begins...
Long-step dual simplex will be used
+   768: mip =     not found yet >=              -inf        (1; 0)
+  1124: >>>>>  -3.871215429e+00 >=  -3.871215429e+00 < 0.1% (351; 0)
+  1124: mip =  -3.871215429e+00 >=     tree is empty   0.0% (0; 701)
INTEGER OPTIMAL SOLUTION FOUND
Time used:   2.7 secs
Memory used: 10.2 Mb (10669205 bytes)
